p cnf 10 36
3 -1 0
7 -2 -4 8 0
-7 5 -8 -10 0
-9 6 4 -5 0
1 2 10 0
-3 9 -6 0
-6 5 8 -4 1 0
4 -1 -6 0
-7 2 -6 -8 0
-3 -4 -2 0
-4 -1 3 0
-9 -3 -1 0
-9 -6 -5 0
-5 -3 4 2 -7 0
10 -7 -4 8 -1 0
-5 -3 -9 -1 4 0
5 -4 0
7 -4 -8 5 0
8 6 -3 10 9 0
3 2 0
2 10 4 8 0
-9 4 0
10 -1 3 2 8 0
5 -8 9 0
-8 9 -1 0
1 -5 3 4 -6 2 0
10 1 9 -8 -4 0
-5 -2 4 -1 0
3 2 -5 4 0
1 -6 9 3 0
3 2 8 0
7 8 0
-4 1 9 6 0
-3 9 8 0
-5 10 -2 -9 0
-5 10 3 -2 -7 0
